unsat
(define-fun f ((x (_ BitVec 32))) (_ BitVec 32) (bvxor x (bvor x (bvadd x #b00000000000000000000000000000001))))
0.66user 0.01system 0:00.67elapsed 99%CPU (0avgtext+0avgdata 38016maxresident)k
16inputs+8outputs (0major+4143minor)pagefaults 0swaps
